(declare-fun var0 () String)
(assert (str.in.re var0 (re.++ (re.* (re.* (str.to.re "nnn"))) (re.++ (re.* (re.* (str.to.re "mm"))) (re.++ (re.union (re.union (str.to.re "i") (str.to.re "j")) (re.union (str.to.re "kk") (str.to.re "lll"))) (re.++ (re.union (re.* (str.to.re "f")) (re.union (str.to.re "gg") (str.to.re "hhh"))) (re.++ (re.+ (re.* (str.to.re "e"))) (re.++ (re.union (re.union (str.to.re "b") (str.to.re "ccc")) (re.+ (str.to.re "d"))) (re.++ (re.union (re.union (str.to.re "777") (str.to.re "88")) (re.union (str.to.re "99") (str.to.re "aa"))) (re.++ (re.+ (re.+ (str.to.re "6"))) (re.++ (re.* (re.union (str.to.re "44") (str.to.re "55"))) (re.union (re.union (str.to.re "000") (str.to.re "11")) (re.union (str.to.re "22") (str.to.re "3"))))))))))))))
(assert (<= 376 (str.len var0)))
(check-sat)